p wcnf 7 27 127
127 1 2 0
127 1 3 0
127 1 4 0
127 1 5 0
127 1 7 0
127 2 3 0
127 2 4 0
127 2 5 0
127 2 6 0
127 2 7 0
127 3 4 0
127 3 5 0
127 3 6 0
127 3 7 0
127 4 5 0
127 4 6 0
127 4 7 0
127 5 6 0
127 5 7 0
127 6 7 0
15 -1 0
14 -2 0
14 -3 0
14 -4 0
14 -5 0
15 -6 0
14 -7 0
